4 5
160 129 92 157 
0 73 71 84 89 16 8 35 26 34 38 36 42 75 57 61 72 26 8 3 80 2
1 79 79 13 22 52 56 107 99 8 24 55 40 83 28 97 32 1 65 42 62 2
2 75 69 39 40 22 18 86 89 96 50 48 71 24 57 51 27 50 44 64 86 3
3 1 10 67 65 16 11 75 66 95 99 15 8 88 39 50 21 100 100 23 25 3
4 94 91 40 42 86 92 32 35 37 54 92 76 87 37 65 10 53 90 98 63 2
